27
Coordinates from ORCA-job input E -723.049348530310
  C          -2.34451100666830      1.51914102317063      0.00003392595318
  C          -3.58918843335666      0.75850482380805      0.00003241554168
  O          -4.73849619044753      1.30380401062375      0.00007443226137
  C          -1.08990834634166      0.92469464554852      0.00001329626081
  C          -0.93848296038692     -0.50956875571032     -0.00000031695585
  C          -2.15408355319285     -1.28332024214568      0.00001883215772
  C          -3.40730002636830     -0.69191468220142      0.00003824355144
  C           0.32895360678854     -1.18382137059861     -0.00002931942556
  C           1.64134137769603     -0.62405421164095     -0.00006258593134
  C           2.84879290066653     -1.46319934696436     -0.00011241957891
  O           3.03657579093642     -2.70152121338909     -0.00005989512616
  N           3.90348274211398     -0.49934865853579     -0.00005746627956
  C           5.29298018869820     -0.87627760259519      0.00001911793009
  C           3.33504615642171      0.76123876954811     -0.00009179041176
  N           1.99591813281998      0.71475782505921     -0.00011279764097
  C           4.13316516000641      2.01721122856220      0.00000059937849
  H          -0.17087025297378      1.52780516109845      0.00000582717836
  H          -2.06344234236191     -2.38340833341649      0.00001444544382
  H           5.83072615983845     -0.50755668525923     -0.90117369640999
  H           5.30308359264565     -1.98667816456724     -0.00000079467908
  H           5.83062856790406     -0.50758937509068      0.90128406707212
  H           3.43062168524344      2.87146923769040     -0.00041059057442
  H           4.79677110387774      2.11018336833431     -0.89220868158322
  H           4.79605975987521      2.11051692681708      0.89271695666761
  H           0.31667865356150     -2.28551516248923     -0.00002994741854
  H          -4.32677616149501     -1.30039602244032      0.00005124677198
  H          -2.44786495050095      2.61713363778389      0.00004689584671

