27
Coordinates from ORCA-job input E -723.036425937695
  C      -2.349682      1.479508      0.000000
  C      -3.590108      0.722409      0.000000
  O      -4.724493      1.232495      0.000000
  C      -1.097858      0.948496      0.000000
  C      -0.916831     -0.464455      0.000000
  C      -2.092869     -1.266697      0.000000
  C      -3.330904     -0.702897      0.000000
  C       0.338230     -1.099689      0.000000
  C       1.621428     -0.591081      0.000000
  C       2.801588     -1.443097      0.000000
  O       2.967859     -2.664682      0.000000
  N       3.858085     -0.506219      0.000000
  C       5.245411     -0.884895      0.000000
  C       3.306674      0.763200      0.000000
  N       2.006693      0.756387      0.000000
  C       4.150985      1.988155      0.000000
  H      -0.234414      1.595856      0.000000
  H      -2.007852     -2.345770      0.000000
  H       5.766465     -0.519174     -0.886333
  H       5.266521     -1.972842      0.000000
  H       5.766465     -0.519174      0.886333
  H       3.497484      2.855439      0.000000
  H       4.797263      2.033164     -0.879567
  H       4.797263      2.033164      0.879567
  H       0.318375     -2.185417      0.000000
  H      -4.182984     -1.366493      0.000000
  H      -2.428890      2.556599      0.000000
27
Coordinates from ORCA-job input E -723.047943809648
  C      -2.372026      1.504504      0.000002
  C      -3.622928      0.747087      0.000016
  O      -4.767993      1.278544      0.000020
  C      -1.110971      0.938078     -0.000002
  C      -0.940795     -0.492100      0.000007
  C      -2.144884     -1.280133      0.000022
  C      -3.397136     -0.697010      0.000026
  C       0.329448     -1.146912      0.000003
  C       1.635950     -0.614689     -0.000010
  C       2.839821     -1.456983     -0.000013
  O       3.015920     -2.693326     -0.000012
  N       3.899787     -0.503585      0.000044
  C       5.292234     -0.875123     -0.000011
  C       3.334699      0.763094     -0.000088
  N       2.009484      0.733067     -0.000024
  C       4.164561      2.004765     -0.000028
  H      -0.217336      1.574419     -0.000013
  H      -2.064323     -2.378184      0.000029
  H       5.823232     -0.502365     -0.901006
  H       5.315351     -1.982911     -0.000214
  H       5.823167     -0.502768      0.901190
  H       3.485813      2.875467     -0.000287
  H       4.824037      2.066886     -0.893936
  H       4.823522      2.067107      0.894243
  H       0.310969     -2.249700      0.000012
  H      -4.286542     -1.349767      0.000037
  H      -2.453158      2.604827     -0.000006
27
Coordinates from ORCA-job input E -723.049039599269
  C      -2.352864      1.515051     -0.000049
  C      -3.606412      0.762558     -0.000024
  O      -4.751882      1.308551     -0.000045
  C      -1.095907      0.924342     -0.000026
  C      -0.941014     -0.510656      0.000026
  C      -2.157988     -1.283705      0.000049
  C      -3.410571     -0.687934      0.000025
  C       0.328734     -1.178759      0.000058
  C       1.640672     -0.629973      0.000044
  C       2.852027     -1.464583      0.000078
  O       3.038450     -2.703871      0.000055
  N       3.905450     -0.500705      0.000063
  C       5.297772     -0.867328     -0.000120
  C       3.331176      0.760631     -0.000044
  N       1.996835      0.714813     -0.000015
  C       4.142361      2.012455      0.000037
  H      -0.185833      1.541709     -0.000046
  H      -2.081564     -2.384933      0.000088
  H       5.831310     -0.493717     -0.902733
  H       5.319715     -1.978144     -0.000444
  H       5.831366     -0.494325      0.902717
  H       3.448857      2.874763     -0.000366
  H       4.804612      2.090122     -0.894794
  H       4.803859      2.090460      0.895406
  H       0.311938     -2.282303      0.000103
  H      -4.317233     -1.319214      0.000046
  H      -2.433965      2.616987     -0.000088
27
Coordinates from ORCA-job input E -723.049284506489
  C      -2.343381      1.519306     -0.000026
  C      -3.593412      0.765025      0.000008
  O      -4.740338      1.314446      0.000012
  C      -1.089098      0.920099     -0.000025
  C      -0.939459     -0.515437      0.000012
  C      -2.159047     -1.283649      0.000046
  C      -3.411768     -0.686410      0.000044
  C       0.328750     -1.189937      0.000025
  C       1.642447     -0.631826     -0.000006
  C       2.853870     -1.465375      0.000019
  O       3.043958     -2.704791      0.000041
  N       3.905123     -0.498718      0.000028
  C       5.295980     -0.868436     -0.000083
  C       3.330736      0.760673     -0.000089
  N       1.992198      0.709468     -0.000083
  C       4.131720      2.016319      0.000030
  H      -0.171835      1.526581     -0.000050
  H      -2.079178     -2.385041      0.000074
  H       5.832109     -0.497161     -0.902081
  H       5.312241     -1.979510     -0.000375
  H       5.832120     -0.497703      0.902142
  H       3.431531      2.873216     -0.000483
  H       4.794973      2.103715     -0.893581
  H       4.794030      2.104122      0.894315
  H       0.313720     -2.292351      0.000067
  H      -4.326446     -1.303898      0.000071
  H      -2.431640      2.619564     -0.000051
27
Coordinates from ORCA-job input E -723.049334819145
  C      -2.343071      1.519829     -0.000013
  C      -3.589256      0.761688      0.000002
  O      -4.737867      1.309087     -0.000006
  C      -1.089093      0.921816     -0.000007
  C      -0.938619     -0.512914      0.000014
  C      -2.156306     -1.282935      0.000023
  C      -3.409513     -0.688983      0.000017
  C       0.328831     -1.188404      0.000032
  C       1.642423     -0.627810      0.000024
  C       2.851561     -1.463802      0.000072
  O       3.040982     -2.702649      0.000066
  N       3.904003     -0.498328     -0.000002
  C       5.293771     -0.872791     -0.000111
  C       3.332885      0.761477     -0.000060
  N       1.993334      0.711559     -0.000029
  C       4.131264      2.017407      0.000043
  H      -0.170387      1.525473     -0.000018
  H      -2.070939     -2.383674      0.000037
  H       5.831385     -0.503672     -0.901472
  H       5.305372     -1.983461     -0.000275
  H       5.831468     -0.503978      0.901332
  H       3.429618      2.872581     -0.000466
  H       4.794804      2.108567     -0.892551
  H       4.793898      2.108981      0.893285
  H       0.315095     -2.290097      0.000064
  H      -4.326591     -1.301207      0.000025
  H      -2.439151      2.618530     -0.000028
27
Coordinates from ORCA-job input E -723.049345964350
  C      -2.344152      1.519448      0.000018
  C      -3.588683      0.759151      0.000045
  O      -4.738084      1.304821      0.000079
  C      -1.089859      0.923796     -0.000009
  C      -0.938314     -0.510403     -0.000008
  C      -2.154374     -1.282784      0.000023
  C      -3.407773     -0.691081      0.000049
  C       0.328903     -1.185361     -0.000027
  C       1.641853     -0.624880     -0.000059
  C       2.849554     -1.462985     -0.000061
  O       3.037889     -2.701415     -0.000015
  N       3.903397     -0.498704     -0.000049
  C       5.292803     -0.875565     -0.000018
  C       3.334400      0.761697     -0.000109
  N       1.994957      0.713877     -0.000121
  C       4.132516      2.017463      0.000020
  H      -0.171055      1.527164     -0.000031
  H      -2.065486     -2.383063      0.000025
  H       5.830873     -0.507180     -0.901113
  H       5.302592     -1.985985     -0.000096
  H       5.830822     -0.507324      0.901170
  H       3.430567      2.872161     -0.000492
  H       4.796184      2.109878     -0.892137
  H       4.795267      2.110275      0.892833
  H       0.315977     -2.286904     -0.000008
  H      -4.325889     -1.301309      0.000072
  H      -2.444982      2.617503      0.000019
27
Coordinates from ORCA-job input E -723.049348561382
  C      -2.344544      1.519191      0.000016
  C      -3.588947      0.758419      0.000013
  O      -4.738405      1.303624     -0.000002
  C      -1.090020      0.924610      0.000017
  C      -0.938336     -0.509535      0.000010
  C      -2.153905     -1.283042     -0.000005
  C      -3.407235     -0.691842     -0.000005
  C       0.328947     -1.184008      0.000017
  C       1.641458     -0.624004      0.000033
  C       2.848816     -1.462998      0.000070
  O       3.036680     -2.701303      0.000042
  N       3.903344     -0.499128     -0.000032
  C       5.292763     -0.876360     -0.000088
  C       3.334944      0.761474     -0.000030
  N       1.995726      0.714723      0.000021
  C       4.133080      2.017314      0.000031
  H      -0.171131      1.527906      0.000020
  H      -2.063621     -2.383156     -0.000015
  H       5.830619     -0.507900     -0.901268
  H       5.302497     -1.986734     -0.000090
  H       5.830702     -0.507908      0.901046
  H       3.430821      2.871757     -0.000395
  H       4.796690      2.110153     -0.892137
  H       4.795974      2.110524      0.892705
  H       0.316459     -2.285627      0.000022
  H      -4.326147     -1.301000     -0.000018
  H      -2.447327      2.617141      0.000020
27
Coordinates from ORCA-job input E -723.049348530310
  C      -2.344511      1.519141      0.000034
  C      -3.589188      0.758505      0.000032
  O      -4.738496      1.303804      0.000074
  C      -1.089908      0.924695      0.000013
  C      -0.938483     -0.509569     -0.000000
  C      -2.154084     -1.283320      0.000019
  C      -3.407300     -0.691915      0.000038
  C       0.328954     -1.183821     -0.000029
  C       1.641341     -0.624054     -0.000063
  C       2.848793     -1.463199     -0.000112
  O       3.036576     -2.701521     -0.000060
  N       3.903483     -0.499349     -0.000057
  C       5.292980     -0.876278      0.000019
  C       3.335046      0.761239     -0.000092
  N       1.995918      0.714758     -0.000113
  C       4.133165      2.017211      0.000001
  H      -0.170870      1.527805      0.000006
  H      -2.063442     -2.383408      0.000014
  H       5.830726     -0.507557     -0.901174
  H       5.303084     -1.986678     -0.000001
  H       5.830629     -0.507589      0.901284
  H       3.430622      2.871469     -0.000411
  H       4.796771      2.110183     -0.892209
  H       4.796060      2.110517      0.892717
  H       0.316679     -2.285515     -0.000030
  H      -4.326776     -1.300396      0.000051
  H      -2.447865      2.617134      0.000047
