24
Coordinates from ORCA-job input E -572.026283897656
  N           0.94212556941801      0.38806209568657     -1.02502848952230
  N           0.93099093592612      0.66404317712095      0.22078936696807
  C           1.63813171808080     -0.63401987843058     -1.62141868418279
  C           2.49134762188714     -1.51497279136755     -0.88996990425874
  C           1.48006243669757     -0.82374790513872     -3.02471718163540
  C           3.16522967208205     -2.53722168607968     -1.55872860750067
  C           2.17195459469365     -1.84668490097640     -3.67227045017773
  C           3.01778657034577     -2.71061261233265     -2.94861059967271
  H           2.58824083950879     -1.37466038436192      0.19575841348594
  H           0.81329436451214     -0.14262868296310     -3.57186996830005
  H           3.81785604823907     -3.21535725501701     -0.98841091638448
  H           2.05005557483163     -1.97988373292584     -4.75733092821686
  H           3.55335208972962     -3.52015763384788     -3.46427233525752
  C           1.62383962991408      1.68370723317826      0.82602330403382
  C           1.44149109209573      1.87811731941713      2.22568206593911
  C           2.49644666986712      2.55684255632517      0.10865803429763
  C           2.12832681789169      2.89733714659312      2.88415046418170
  C           3.16557564092125      3.57550802649652      0.78747127705546
  C           2.99378586440070      3.75328625414143      2.17413108394875
  H           0.75957774101252      1.20258480043113      2.76101474659737
  H           2.61237281965523      2.41374146811106     -0.97487708818299
  H           1.98764905833388      3.03442843835629      3.96640785916968
  H           3.83375625618821      4.24785265334750      0.22843326641200
  H           3.52583837576724      4.56024329423617      2.69748727120272
