24
Coordinates from ORCA-job input E -571.816108845399
  N       2.301237      0.540062     -1.028966
  N       2.301235      0.506255      0.243846
  C       2.301228     -0.738525     -1.645660
  C       2.301209     -1.970883     -0.951376
  C       2.301232     -0.730492     -3.056256
  C       2.301194     -3.169337     -1.668746
  C       2.301217     -1.935837     -3.770142
  C       2.301197     -3.157458     -3.077865
  H       2.301205     -1.948529      0.146814
  H       2.301246      0.244646     -3.564506
  H       2.301178     -4.128910     -1.130247
  H       2.301220     -1.923437     -4.869749
  H       2.301185     -4.106134     -3.634737
  C       2.301227      1.784841      0.860537
  C       2.301231      1.776810      2.271132
  C       2.301208      3.017198      0.166252
  C       2.301217      2.982156      2.985017
  C       2.301194      4.215653      0.883620
  C       2.301198      4.203776      2.292739
  H       2.301245      0.801673      2.779383
  H       2.301204      2.994844     -0.931938
  H       2.301220      2.969758      4.084624
  H       2.301178      5.175226      0.345119
  H       2.301185      5.152453      2.849609
24
Coordinates from ORCA-job input E -571.921401737174
  N       2.301154      0.437292     -1.037067
  N       2.301153      0.609024      0.251949
  C       2.301188     -0.800812     -1.691324
  C       2.301229     -2.040917     -0.995399
  C       2.301175     -0.793394     -3.115053
  C       2.301253     -3.232310     -1.722405
  C       2.301200     -1.995967     -3.823042
  C       2.301239     -3.223195     -3.130784
  H       2.301237     -2.026988      0.104209
  H       2.301143      0.177231     -3.630548
  H       2.301282     -4.191475     -1.183708
  H       2.301189     -1.982763     -4.922471
  H       2.301257     -4.171667     -3.686697
  C       2.301187      1.847126      0.906202
  C       2.301174      1.839713      2.329931
  C       2.301229      3.087231      0.210274
  C       2.301200      3.042287      3.037917
  C       2.301253      4.278626      0.937277
  C       2.301239      4.269513      2.345657
  H       2.301142      0.869089      2.845428
  H       2.301236      3.073301     -0.889334
  H       2.301189      3.029086      4.137346
  H       2.301282      5.237790      0.398578
  H       2.301258      5.217987      2.901567
24
Coordinates from ORCA-job input E -571.997128088972
  N       2.301186      0.336743     -1.012076
  N       2.301185      0.709584      0.226920
  C       2.301204     -0.847510     -1.691138
  C       2.301224     -2.101748     -1.004162
  C       2.301195     -0.825724     -3.126572
  C       2.301232     -3.277214     -1.752112
  C       2.301204     -2.019824     -3.839372
  C       2.301222     -3.258346     -3.161556
  H       2.301229     -2.109120      0.094019
  H       2.301179      0.145116     -3.640670
  H       2.301245     -4.240269     -1.221737
  H       2.301196     -1.994374     -4.938457
  H       2.301229     -4.200791     -3.726299
  C       2.301203      1.893836      0.906003
  C       2.301194      1.872035      2.341440
  C       2.301224      3.148079      0.219037
  C       2.301204      3.066130      3.054250
  C       2.301232      4.323538      0.966998
  C       2.301223      4.304657      2.376442
  H       2.301178      0.901189      2.855529
  H       2.301228      3.155457     -0.879144
  H       2.301197      3.040670      4.153334
  H       2.301245      5.286597      0.436632
  H       2.301229      5.247097      2.941193
24
Coordinates from ORCA-job input E -573.117834881050
  N       2.301187      0.228144     -0.930083
  N       2.301187      0.818234      0.144782
  C       2.301201     -0.886473     -1.639704
  C       2.301231     -2.165620     -0.976074
  C       2.301185     -0.825768     -3.085312
  C       2.301240     -3.311480     -1.760440
  C       2.301197     -2.004234     -3.812853
  C       2.301224     -3.266519     -3.171873
  H       2.301241     -2.211529      0.120125
  H       2.301163      0.149482     -3.589162
  H       2.301260     -4.283590     -1.248163
  H       2.301184     -1.948349     -4.910809
  H       2.301231     -4.193710     -3.758956
  C       2.301201      1.932848      0.854522
  C       2.301185      1.872046      2.300142
  C       2.301231      3.212030      0.190946
  C       2.301197      3.050478      3.027740
  C       2.301240      4.357840      0.975384
  C       2.301224      4.312792      2.386816
  H       2.301163      0.896758      2.803928
  H       2.301241      3.257970     -0.905252
  H       2.301184      2.994532      4.125688
  H       2.301260      5.329973      0.463164
  H       2.301231      5.239949      2.973948
24
Coordinates from ORCA-job input E -572.006606151186
  N       2.301166      0.324533     -1.002005
  N       2.301166      0.722088      0.214723
  C       2.301190     -0.837861     -1.677523
  C       2.301236     -2.103781     -0.998869
  C       2.301170     -0.815009     -3.109411
  C       2.301256     -3.280192     -1.750372
  C       2.301193     -2.012927     -3.823430
  C       2.301235     -3.255917     -3.156597
  H       2.301249     -2.119116      0.099168
  H       2.301137      0.155160     -3.623855
  H       2.301287     -4.246416     -1.221146
  H       2.301176     -1.981732     -4.923008
  H       2.301250     -4.194951     -3.726635
  C       2.301190      1.884761      0.891599
  C       2.301170      1.860842      2.323757
  C       2.301236      3.151274      0.213654
  C       2.301193      3.058387      3.038469
  C       2.301256      4.327091      0.966094
  C       2.301235      4.301740      2.372306
  H       2.301137      0.890216      2.837484
  H       2.301248      3.167142     -0.884408
  H       2.301176      3.026473      4.137965
  H       2.301287      5.293625      0.437581
  H       2.301250      5.240377      2.942962
24
Coordinates from ORCA-job input E -572.006917333296
  N       2.301055      0.327798     -1.000859
  N       2.301051      0.719311      0.213396
  C       2.301136     -0.832135     -1.679725
  C       2.301360     -2.101102     -1.003806
  C       2.300995     -0.816855     -3.113330
  C       2.301430     -3.279798     -1.750631
  C       2.301075     -2.015201     -3.825037
  C       2.301293     -3.257206     -3.157157
  H       2.301464     -2.114863      0.094706
  H       2.300825      0.152045     -3.630208
  H       2.301596     -4.245317     -1.219218
  H       2.300966     -1.985470     -4.924907
  H       2.301352     -4.196937     -3.726372
  C       2.301135      1.879276      0.893765
  C       2.300994      1.862591      2.327542
  C       2.301359      3.148762      0.218583
  C       2.301076      3.060507      3.040083
  C       2.301429      4.326780      0.966507
  C       2.301293      4.302893      2.372985
  H       2.300824      0.893091      2.843435
  H       2.301464      3.162946     -0.879947
  H       2.300968      3.029880      4.139859
  H       2.301596      5.292653      0.435898
  H       2.301352      5.242159      2.942940
24
Coordinates from ORCA-job input E -572.007354808287
  N       2.300837      0.334851     -0.998990
  N       2.300861      0.713414      0.210598
  C       2.301115     -0.817704     -1.685188
  C       2.300608     -2.092981     -1.015105
  C       2.301752     -0.819762     -3.121034
  C       2.300660     -3.277045     -1.749750
  C       2.301918     -2.019672     -3.827577
  C       2.301349     -3.259544     -3.157604
  H       2.300081     -2.101978      0.084486
  H       2.302136      0.146772     -3.643181
  H       2.300209     -4.239184     -1.212553
  H       2.302433     -1.992823     -4.927601
  H       2.301416     -4.200748     -3.724687
  C       2.301126      1.865451      0.898861
  C       2.301763      1.865122      2.334764
  C       2.300612      3.141344      0.229819
  C       2.301913      3.064353      3.042661
  C       2.300662      4.324385      0.966195
  C       2.301343      4.304800      2.373954
  H       2.302152      0.897600      2.855160
  H       2.300096      3.150762     -0.869758
  H       2.302426      3.036003      4.142581
  H       2.300215      5.287115      0.430206
  H       2.301404      5.245276      2.942243
24
Coordinates from ORCA-job input E -572.007569643312
  N       2.298465      0.336497     -0.998695
  N       2.298347      0.712190      0.209844
  C       2.299818     -0.813403     -1.687589
  C       2.303580     -2.090502     -1.019070
  C       2.297519     -0.820744     -3.123431
  C       2.305013     -3.276113     -1.749386
  C       2.298837     -2.021513     -3.828386
  C       2.302626     -3.260820     -3.158144
  H       2.305356     -2.097466      0.080845
  H       2.294686      0.145090     -3.647123
  H       2.307985     -4.236661     -1.209697
  H       2.297033     -1.994992     -4.928419
  H       2.303740     -4.202374     -3.724596
  C       2.299771      1.861369      0.901048
  C       2.297487      1.865935      2.336949
  C       2.303560      3.139203      0.233749
  C       2.298858      3.065901      3.043485
  C       2.304999      4.323614      0.966087
  C       2.302642      4.305897      2.374747
  H       2.294633      0.898957      2.858597
  H       2.305323      3.146655     -0.866143
  H       2.297064      3.037618      4.143408
  H       2.307976      5.284871      0.427807
  H       2.303768      5.246600      2.942613
24
Coordinates from ORCA-job input E -572.008585940935
  N       2.298369      0.340917     -0.997893
  N       2.300177      0.709628      0.206438
  C       2.302963     -0.798509     -1.697968
  C       2.277750     -2.081566     -1.034277
  C       2.327007     -0.824527     -3.132089
  C       2.275115     -3.272281     -1.748088
  C       2.326899     -2.029288     -3.830792
  C       2.300519     -3.266666     -3.160765
  H       2.258140     -2.079654      0.066611
  H       2.346258      0.138341     -3.661573
  H       2.254423     -4.225638     -1.197791
  H       2.346230     -2.002332     -4.930695
  H       2.299092     -4.209200     -3.725075
  C       2.303677      1.847494      0.910243
  C       2.327533      1.868891      2.344597
  C       2.278035      3.132007      0.248770
  C       2.326594      3.072197      3.046021
  C       2.275294      4.320600      0.966086
  C       2.300203      4.310881      2.378698
  H       2.347108      0.904107      2.870658
  H       2.258803      3.131000     -0.852075
  H       2.345707      3.042199      4.145771
  H       2.254630      5.275264      0.418234
  H       2.298562      5.251942      2.945455
24
Coordinates from ORCA-job input E -572.009516045733
  N       2.219874      0.343823     -0.997232
  N       2.205887      0.711376      0.199809
  C       2.256671     -0.782844     -1.711416
  C       2.364867     -2.067665     -1.051085
  C       2.196513     -0.830323     -3.140909
  C       2.411383     -3.261972     -1.746461
  C       2.237763     -2.040304     -3.831529
  C       2.346208     -3.272041     -3.163688
  H       2.413294     -2.051824      0.049927
  H       2.115314      0.125883     -3.677304
  H       2.497037     -4.202732     -1.182954
  H       2.188032     -2.012542     -4.930488
  H       2.380936     -4.214729     -3.725647
  C       2.251669      1.833869      0.920829
  C       2.192856      1.873018      2.350983
  C       2.362499      3.121614      0.265331
  C       2.239606      3.079722      3.047094
  C       2.410320      4.311857      0.967307
  C       2.348413      4.314213      2.384707
  H       2.109578      0.913554      2.881273
  H       2.407964      3.108417     -0.835745
  H       2.191239      3.046175      4.145877
  H       2.496284      5.255262      0.408453
  H       2.384881      5.254001      2.951370
24
Coordinates from ORCA-job input E 1715.977844925796
  N       2.149316      0.336088     -0.990168
  N       2.186358      0.714923      0.199511
  C       2.231299     -0.786296     -1.710589
  C       2.343009     -2.070466     -1.048378
  C       2.193744     -0.827710     -3.138772
  C       2.408587     -3.261499     -1.745600
  C       2.262126     -2.037103     -3.830396
  C       2.369214     -3.269985     -3.165750
  H       2.369241     -2.054744      0.053260
  H       2.112179      0.128218     -3.675992
  H       2.494406     -4.200856     -1.180120
  H       2.230450     -2.002663     -4.929757
  H       2.420346     -4.210220     -3.729964
  C       2.243368      1.834581      0.923090
  C       2.201340      1.871579      2.352348
  C       2.349418      3.121123      0.262082
  C       2.257013      3.080371      3.045530
  C       2.410957      4.309601      0.963217
  C       2.363295      4.314936      2.383422
  H       2.123519      0.913557      2.886234
  H       2.383020      3.104831     -0.839169
  H       2.221635      3.043077      4.144677
  H       2.495163      5.250402      0.399987
  H       2.410085      5.254059      2.949798
24
Coordinates from ORCA-job input E -572.011047595133
  N       2.126098      0.317573     -0.979896
  N       2.196402      0.737919      0.188717
  C       2.234411     -0.809402     -1.702524
  C       2.292406     -2.090765     -1.030732
  C       2.247930     -0.820975     -3.127218
  C       2.349701     -3.273176     -1.744877
  C       2.320304     -2.030024     -3.823667
  C       2.368690     -3.270470     -3.166909
  H       2.272833     -2.081613      0.069861
  H       2.208374      0.138991     -3.662363
  H       2.390401     -4.217881     -1.183003
  H       2.331317     -1.979888     -4.922614
  H       2.416273     -4.206627     -3.737151
  C       2.254067      1.855944      0.915000
  C       2.261789      1.864608      2.342956
  C       2.300879      3.140630      0.243181
  C       2.309555      3.073110      3.039499
  C       2.354843      4.319446      0.961190
  C       2.358314      4.316044      2.384548
  H       2.229927      0.903812      2.876387
  H       2.295546      3.130987     -0.857194
  H       2.314888      3.020926      4.138571
  H       2.393884      5.265077      0.400624
  H       2.400258      5.251563      2.956116
24
Coordinates from ORCA-job input E -572.014514446385
  N       2.159340      0.302659     -0.966940
  N       2.200339      0.735868      0.196868
  C       2.247677     -0.835307     -1.678398
  C       2.292950     -2.112387     -1.007868
  C       2.259943     -0.812219     -3.105825
  C       2.341479     -3.283744     -1.751412
  C       2.318067     -2.011163     -3.816925
  C       2.357135     -3.258998     -3.166995
  H       2.276514     -2.121341      0.091256
  H       2.229480      0.154584     -3.627618
  H       2.374586     -4.241410     -1.210605
  H       2.328906     -1.955420     -4.915626
  H       2.396755     -4.190630     -3.746010
  C       2.258972      1.875256      0.902301
  C       2.266711      1.863098      2.331517
  C       2.299006      3.148840      0.221186
  C       2.311522      3.067509      3.031976
  C       2.344597      4.324732      0.956966
  C       2.351160      4.311696      2.372908
  H       2.239227      0.900456      2.860796
  H       2.291720      3.147709     -0.877852
  H       2.318231      3.019868      4.131185
  H       2.377293      5.278415      0.408818
  H       2.387476      5.247735      2.944801
24
Coordinates from ORCA-job input E -572.015945859960
  N       2.157594      0.291701     -0.950004
  N       2.174178      0.725961      0.206472
  C       2.244378     -0.848115     -1.655896
  C       2.300091     -2.124147     -0.992623
  C       2.250036     -0.802757     -3.087089
  C       2.355467     -3.286006     -1.755894
  C       2.309970     -1.990929     -3.810359
  C       2.361989     -3.244533     -3.166308
  H       2.290697     -2.149164      0.105409
  H       2.212547      0.168946     -3.596856
  H       2.398711     -4.252640     -1.231955
  H       2.316075     -1.932372     -4.909026
  H       2.406143     -4.172068     -3.752224
  C       2.248416      1.880865      0.893205
  C       2.250755      1.862212      2.324338
  C       2.303857      3.144497      0.206631
  C       2.307756      3.063762      3.025162
  C       2.356784      4.320781      0.948280
  C       2.360230      4.305577      2.358519
  H       2.210098      0.900034      2.851790
  H       2.299551      3.147332     -0.891731
  H       2.310830      3.025490      4.124747
  H       2.399952      5.277678      0.406558
  H       2.402984      5.243700      2.927357
24
Coordinates from ORCA-job input E -572.016162894035
  N       2.138201      0.288237     -0.942549
  N       2.134988      0.722935      0.211480
  C       2.232240     -0.854054     -1.643915
  C       2.317690     -2.128426     -0.984945
  C       2.221467     -0.799606     -3.077440
  C       2.385515     -3.285123     -1.757238
  C       2.295020     -1.981111     -3.807188
  C       2.375875     -3.236654     -3.165684
  H       2.323073     -2.162640      0.112410
  H       2.161350      0.174614     -3.580198
  H       2.451364     -4.255404     -1.242298
  H       2.289479     -1.924319     -4.905843
  H       2.430399     -4.161873     -3.754685
  C       2.229263      1.884548      0.886761
  C       2.218219      1.862688      2.319383
  C       2.316164      3.141703      0.198908
  C       2.294768      3.060588      3.022476
  C       2.386573      4.316864      0.943621
  C       2.377945      4.300430      2.352207
  H       2.150892      0.900380      2.843819
  H       2.322707      3.149142     -0.899044
  H       2.288088      3.029209      4.122126
  H       2.453565      5.274877      0.406397
  H       2.434244      5.238799      2.919942
24
Coordinates from ORCA-job input E -572.016283709663
  N       2.104009      0.287521     -0.944090
  N       2.108746      0.724728      0.209766
  C       2.217443     -0.853728     -1.644314
  C       2.311192     -2.127474     -0.984954
  C       2.213043     -0.800320     -3.077497
  C       2.393637     -3.283923     -1.755825
  C       2.301636     -1.981348     -3.806590
  C       2.390715     -3.235982     -3.164699
  H       2.311658     -2.161537      0.112477
  H       2.145159      0.173228     -3.580651
  H       2.466479     -4.253277     -1.240092
  H       2.301297     -1.925065     -4.905313
  H       2.456363     -4.160701     -3.753326
  C       2.218434      1.884621      0.885635
  C       2.212020      1.862487      2.318306
  C       2.312523      3.142446      0.198789
  C       2.300459      3.059238      3.022000
  C       2.394765      4.316462      0.943606
  C       2.391009      4.299057      2.352684
  H       2.140486      0.900171      2.842264
  H       2.314826      3.151349     -0.899196
  H       2.298342      3.027238      4.121665
  H       2.467975      5.274246      0.406782
  H       2.456872      5.236370      2.921077
24
Coordinates from ORCA-job input E -572.016446612262
  N       2.012881      0.282617     -0.940345
  N       2.023495      0.723812      0.212439
  C       2.178136     -0.853646     -1.638294
  C       2.309451     -2.124704     -0.981452
  C       2.176295     -0.798432     -3.071762
  C       2.431370     -3.276844     -1.753553
  C       2.306366     -1.973759     -3.802997
  C       2.432770     -3.226384     -3.162432
  H       2.307072     -2.162973      0.115877
  H       2.077559      0.174034     -3.572050
  H       2.533997     -4.244773     -1.240377
  H       2.309759     -1.918315     -4.901770
  H       2.529519     -4.147646     -3.752251
  C       2.181943      1.882188      0.882896
  C       2.177262      1.862644      2.315946
  C       2.312901      3.135481      0.195013
  C       2.304992      3.055963      3.018709
  C       2.432419      4.307751      0.937821
  C       2.431627      4.291698      2.346983
  H       2.078334      0.902622      2.839837
  H       2.312588      3.146072     -0.903054
  H       2.306214      3.028259      4.118426
  H       2.534863      5.262763      0.400992
  H       2.527278      5.227380      2.913901
24
Coordinates from ORCA-job input E -572.016394498165
  N       1.860057      0.275664     -0.934710
  N       1.875357      0.722357      0.218531
  C       2.109735     -0.847610     -1.630319
  C       2.316453     -2.109097     -0.976056
  C       2.103458     -0.795551     -3.064083
  C       2.505135     -3.253108     -1.746549
  C       2.306197     -1.959542     -3.796395
  C       2.505391     -3.202940     -3.155936
  H       2.317199     -2.150888      0.121427
  H       1.943993      0.170434     -3.561521
  H       2.665321     -4.213691     -1.234413
  H       2.308817     -1.908051     -4.895318
  H       2.655559     -4.117048     -3.745664
  C       2.115771      1.872595      0.880520
  C       2.106592      1.863119      2.313838
  C       2.321911      3.112696      0.189108
  C       2.304738      3.048991      3.012554
  C       2.506473      4.280889      0.924739
  C       2.502991      4.272002      2.334619
  H       1.952252      0.911146      2.839305
  H       2.323869      3.122524     -0.909209
  H       2.305458      3.031011      4.112389
  H       2.665553      5.226195      0.384708
  H       2.650808      5.203712      2.896938
24
Coordinates from ORCA-job input E -572.016733553945
  N       1.923095      0.289199     -0.949925
  N       1.932382      0.728795      0.208060
  C       2.134277     -0.843862     -1.643950
  C       2.323668     -2.105130     -0.982754
  C       2.119792     -0.803094     -3.077110
  C       2.486498     -3.257979     -1.745111
  C       2.297252     -1.976510     -3.802471
  C       2.478587     -3.218457     -3.155556
  H       2.331921     -2.137799      0.115139
  H       1.973529      0.161910     -3.580717
  H       2.631320     -4.217153     -1.225607
  H       2.292212     -1.931239     -4.901633
  H       2.608811     -4.138965     -3.739908
  C       2.137769      1.877385      0.880721
  C       2.123257      1.862289      2.313823
  C       2.325894      3.125316      0.196096
  C       2.297546      3.049034      3.018444
  C       2.487223      4.292624      0.936940
  C       2.477783      4.278380      2.347968
  H       1.982700      0.905674      2.834722
  H       2.333123      3.138898     -0.902248
  H       2.292549      3.024399      4.118162
  H       2.630847      5.242344      0.400179
  H       2.607053      5.209748      2.915237
24
Coordinates from ORCA-job input E -572.016956005909
  N       1.879909      0.294483     -0.956936
  N       1.886258      0.730487      0.203865
  C       2.112755     -0.836598     -1.647781
  C       2.333456     -2.090064     -0.982068
  C       2.088923     -0.804924     -3.080614
  C       2.517262     -3.243567     -1.738600
  C       2.288568     -1.977801     -3.801209
  C       2.501033     -3.211862     -3.149160
  H       2.348511     -2.117353      0.116017
  H       1.917915      0.154455     -3.587272
  H       2.685715     -4.196524     -1.214811
  H       2.276774     -1.939140     -4.900574
  H       2.648387     -4.132337     -3.729483
  C       2.116946      1.873527      0.878652
  C       2.093869      1.860444      2.311369
  C       2.335639      3.117334      0.195765
  C       2.290296      3.043265      3.016998
  C       2.517592      4.281531      0.936558
  C       2.500520      4.268103      2.347529
  H       1.930469      0.906472      2.830563
  H       2.348235      3.131533     -0.902623
  H       2.279503      3.019774      4.116703
  H       2.684192      5.227830      0.400357
  H       2.646361      5.196737      2.915254
24
Coordinates from ORCA-job input E -572.017675086426
  N       1.768637      0.311209     -0.977055
  N       1.764646      0.735671      0.189985
  C       2.059172     -0.814940     -1.657553
  C       2.353783     -2.042949     -0.975464
  C       2.016953     -0.806598     -3.088994
  C       2.591140     -3.197470     -1.716862
  C       2.271114     -1.978268     -3.794344
  C       2.557364     -3.188135     -3.126166
  H       2.380996     -2.051971      0.122679
  H       1.789686      0.135086     -3.606650
  H       2.816754     -4.131535     -1.180663
  H       2.245444     -1.956998     -4.893963
  H       2.748118     -4.108290     -3.694372
  C       2.062653      1.862346      0.870798
  C       2.025024      1.850890      2.301736
  C       2.353614      3.091747      0.190506
  C       2.279028      3.021715      3.009396
  C       2.588898      4.246041      0.933363
  C       2.559090      4.233258      2.342484
  H       1.805961      0.906274      2.817711
  H       2.375040      3.104933     -0.907764
  H       2.257453      2.998504      4.109005
  H       2.810555      5.182076      0.398948
  H       2.747964      5.153209      2.911744
24
Coordinates from ORCA-job input E -572.018204904181
  N       1.690360      0.325436     -0.994973
  N       1.681390      0.743885      0.176534
  C       2.020964     -0.798199     -1.666133
  C       2.367469     -2.004384     -0.971033
  C       1.966523     -0.810422     -3.095990
  C       2.642257     -3.159634     -1.699037
  C       2.259636     -1.981040     -3.788758
  C       2.596819     -3.169849     -3.107566
  H       2.403050     -1.997147      0.126905
  H       1.699590      0.115465     -3.623208
  H       2.907330     -4.077189     -1.152406
  H       2.224424     -1.974647     -4.888300
  H       2.817746     -4.089511     -3.665635
  C       2.024653      1.855204      0.863034
  C       1.977938      1.843735      2.293082
  C       2.365368      3.073446      0.186296
  C       2.272147      3.003462      3.003964
  C       2.638016      4.218021      0.931826
  C       2.600097      4.204526      2.340523
  H       1.720777      0.907081      2.806004
  H       2.392578      3.086637     -0.911852
  H       2.243693      2.978986      4.103424
  H       2.897242      5.145641      0.399575
  H       2.819023      5.116301      2.912226
24
Coordinates from ORCA-job input E -572.018878825635
  N       1.578076      0.356853     -1.031583
  N       1.563025      0.762656      0.148999
  C       1.968331     -0.767573     -1.685961
  C       2.374376     -1.936409     -0.962744
  C       1.909136     -0.814858     -3.111594
  C       2.701544     -3.096120     -1.664289
  C       2.255969     -1.988281     -3.777973
  C       2.651469     -3.141556     -3.070564
  H       2.410629     -1.896896      0.134284
  H       1.597582      0.084101     -3.660600
  H       3.012190     -3.985644     -1.095356
  H       2.215780     -2.005679     -4.877205
  H       2.914183     -4.062593     -3.608042
  C       1.971592      1.844459      0.849184
  C       1.927103      1.824487      2.277571
  C       2.367172      3.048157      0.177289
  C       2.278882      2.965554      2.994255
  C       2.692699      4.175128      0.929721
  C       2.659195      4.154346      2.338011
  H       1.626292      0.899030      2.786830
  H       2.389309      3.062541     -0.920720
  H       2.250670      2.930707      4.093584
  H       2.993174      5.091971      0.400235
  H       2.920712      5.051427      2.915171
24
Coordinates from ORCA-job input E -572.016105751925
  N       1.653198      0.431778     -1.097455
  N       1.644699      0.793041      0.106494
  C       2.020666     -0.747699     -1.742375
  C       2.277680     -1.920561     -0.964464
  C       2.054450     -0.802471     -3.156099
  C       2.556773     -3.120215     -1.631100
  C       2.348768     -2.024472     -3.777795
  C       2.597261     -3.186302     -3.031305
  H       2.233439     -1.835994      0.127946
  H       1.864277      0.099956     -3.752572
  H       2.755829     -4.014786     -1.019336
  H       2.376747     -2.031591     -4.877398
  H       2.820082     -4.134790     -3.538423
  C       2.022613      1.856562      0.848137
  C       2.090191      1.771402      2.267551
  C       2.254886      3.103215      0.178988
  C       2.400559      2.924319      2.992474
  C       2.536836      4.229326      0.955142
  C       2.620692      4.162963      2.359267
  H       1.905903      0.818966      2.780252
  H       2.181914      3.122316     -0.914827
  H       2.451580      2.821717      4.087497
  H       2.712519      5.179240      0.426441
  H       2.847527      5.059891      2.951462
24
Coordinates from ORCA-job input E -572.017109305221
  N       1.370114      0.435699     -1.127119
  N       1.354287      0.801887      0.073261
  C       1.863125     -0.691833     -1.732296
  C       2.323540     -1.784953     -0.930047
  C       1.848848     -0.806751     -3.147822
  C       2.754977     -2.954297     -1.560838
  C       2.308283     -1.985898     -3.739913
  C       2.756724     -3.068630     -2.961749
  H       2.311019     -1.672297      0.162098
  H       1.498720      0.036187     -3.758165
  H       3.108787     -3.785325     -0.930696
  H       2.303934     -2.042790     -4.838652
  H       3.103523     -3.992790     -3.444054
  C       1.879165      1.812451      0.807950
  C       1.887485      1.749373      2.231271
  C       2.319558      3.007095      0.145207
  C       2.343695      2.849934      2.958106
  C       2.742454      4.091789      0.913898
  C       2.765444      4.032156      2.319732
  H       1.559742      0.831666      2.736306
  H       2.288815      3.033061     -0.951860
  H       2.357839      2.765251      4.055532
  H       3.076638      5.000019      0.388144
  H       3.102371      4.894805      2.910205
24
Coordinates from ORCA-job input E -572.019020696175
  N       1.536994      0.383495     -1.083806
  N       1.524726      0.782783      0.096202
  C       1.939882     -0.743928     -1.698498
  C       2.348402     -1.895538     -0.947322
  C       1.901025     -0.819489     -3.126402
  C       2.699283     -3.062421     -1.618632
  C       2.276519     -1.996034     -3.765500
  C       2.673036     -3.132788     -3.027828
  H       2.365848     -1.835111      0.149999
  H       1.591399      0.067453     -3.695192
  H       3.012659     -3.937183     -1.029454
  H       2.257906     -2.034998     -4.864805
  H       2.956879     -4.060155     -3.543695
  C       1.957146      1.844739      0.810031
  C       1.937984      1.792611      2.240825
  C       2.344816      3.071028      0.166144
  C       2.305755      2.913027      2.980460
  C       2.687692      4.176169      0.938595
  C       2.676340      4.117694      2.347411
  H       1.650124      0.852720      2.730867
  H       2.349286      3.115369     -0.931902
  H       2.302505      2.851082      4.078795
  H       2.983576      5.106085      0.429528
  H       2.949305      4.999198      2.942681
24
Coordinates from ORCA-job input E -572.018374384949
  N       1.529801      0.462650     -1.165505
  N       1.528827      0.831770      0.034831
  C       1.939166     -0.713902     -1.754835
  C       2.296243     -1.841483     -0.946091
  C       1.944248     -0.826646     -3.171111
  C       2.646479     -3.039707     -1.570034
  C       2.323438     -2.038137     -3.757150
  C       2.669040     -3.153344     -2.972986
  H       2.269764     -1.726189      0.145147
  H       1.674103      0.041231     -3.787861
  H       2.920290     -3.897030     -0.935359
  H       2.337018     -2.093441     -4.855639
  H       2.952065     -4.101398     -3.450243
  C       1.965582      1.856425      0.790048
  C       2.009764      1.742788      2.212862
  C       2.284291      3.112283      0.164575
  C       2.380890      2.853019      2.972447
  C       2.624956      4.198539      0.966437
  C       2.682451      4.091374      2.372494
  H       1.776112      0.783164      2.692002
  H       2.230926      3.174306     -0.929837
  H       2.424421      2.729678      4.065304
  H       2.866072      5.150988      0.469606
  H       2.953142      4.958866      2.989399
24
Coordinates from ORCA-job input E -572.019455905055
  N       1.524275      0.404683     -1.093423
  N       1.509667      0.793689      0.096250
  C       1.940815     -0.740387     -1.712498
  C       2.337750     -1.886718     -0.949546
  C       1.913903     -0.818844     -3.136298
  C       2.691533     -3.059940     -1.616326
  C       2.291175     -2.004851     -3.766306
  C       2.677580     -3.136349     -3.021585
  H       2.341318     -1.814357      0.145862
  H       1.611562      0.063094     -3.716846
  H       2.995493     -3.932718     -1.018316
  H       2.278199     -2.041982     -4.865728
  H       2.961954     -4.067125     -3.530832
  C       1.950892      1.848991      0.818240
  C       1.947797      1.786784      2.244731
  C       2.328617      3.070589      0.167130
  C       2.324540      2.908633      2.981429
  C       2.677552      4.175762      0.941870
  C       2.684772      4.114995      2.348832
  H       1.665362      0.848837      2.741174
  H       2.316933      3.106847     -0.930103
  H       2.330077      2.834894      4.079328
  H       2.964656      5.105672      0.427805
  H       2.962666      4.995606      2.943659
24
Coordinates from ORCA-job input E -572.019576324666
  N       1.511026      0.399392     -1.090555
  N       1.496223      0.788036      0.097966
  C       1.932936     -0.737812     -1.708283
  C       2.339785     -1.881508     -0.947541
  C       1.904495     -0.816447     -3.132290
  C       2.700928     -3.051650     -1.614216
  C       2.289474     -1.997947     -3.763798
  C       2.685515     -3.127554     -3.020064
  H       2.345109     -1.810820      0.148646
  H       1.593523      0.064003     -3.710565
  H       3.011937     -3.922726     -1.017488
  H       2.275333     -2.036229     -4.863161
  H       2.975804     -4.056097     -3.530135
  C       1.944142      1.843558      0.817166
  C       1.937455      1.786838      2.244235
  C       2.332862      3.061151      0.165181
  C       2.320626      2.907170      2.979295
  C       2.688403      4.166241      0.936424
  C       2.691685      4.108979      2.343714
  H       1.645907      0.852082      2.741394
  H       2.324744      3.096202     -0.932602
  H       2.323267      2.838587      4.077496
  H       2.983422      5.093090      0.421123
  H       2.974488      4.989267      2.936561
24
Coordinates from ORCA-job input E 1715.994224904807
  N       1.482659      0.384665     -1.070574
  N       1.463794      0.772464      0.118424
  C       1.924705     -0.734855     -1.698023
  C       2.371218     -1.871352     -0.950256
  C       1.872864     -0.813493     -3.121348
  C       2.744855     -3.032626     -1.624770
  C       2.264783     -1.986332     -3.763143
  C       2.701637     -3.108224     -3.030265
  H       2.397827     -1.804950      0.146449
  H       1.527495      0.060969     -3.689336
  H       3.084562     -3.898834     -1.036689
  H       2.227671     -2.027487     -4.861867
  H       2.999558     -4.030379     -3.547403
  C       1.924481      1.831209      0.828267
  C       1.889364      1.800723      2.254948
  C       2.361821      3.024570      0.166326
  C       2.288470      2.921762      2.980219
  C       2.732313      4.134355      0.923994
  C       2.707183      4.100941      2.331886
  H       1.554788      0.884238      2.759167
  H       2.377243      3.043700     -0.932249
  H       2.264687      2.876905      4.079332
  H       3.061941      5.044595      0.400187
  H       3.003172      4.983245      2.915228
24
Coordinates from ORCA-job input E -572.016643253219
  N       1.359744      0.361949     -1.041679
  N       1.332919      0.761554      0.147185
  C       1.868154     -0.731769     -1.677179
  C       2.402669     -1.836866     -0.945183
  C       1.792085     -0.814190     -3.098810
  C       2.835439     -2.973423     -1.629457
  C       2.244478     -1.958053     -3.753526
  C       2.767465     -3.050222     -3.032393
  H       2.448976     -1.773718      0.150994
  H       1.377989      0.036863     -3.656876
  H       3.241787     -3.818060     -1.052940
  H       2.188064     -2.004585     -4.851222
  H       3.111714     -3.951525     -3.557523
  C       1.860534      1.813204      0.838308
  C       1.790304      1.824389      2.262285
  C       2.396229      2.950760      0.159927
  C       2.250695      2.932456      2.971175
  C       2.828209      4.054152      0.897819
  C       2.767754      4.060286      2.302926
  H       1.378361      0.947210      2.780090
  H       2.439145      2.941825     -0.937965
  H       2.199978      2.923094      4.070024
  H       3.234017      4.925275      0.361805
  H       3.112378      4.935201      2.870718
24
Coordinates from ORCA-job input E -572.019008874656
  N       1.394878      0.343759     -1.013004
  N       1.365094      0.744201      0.172768
  C       1.879083     -0.741165     -1.662123
  C       2.409327     -1.862389     -0.945141
  C       1.795312     -0.806567     -3.087289
  C       2.833984     -2.989756     -1.646068
  C       2.235725     -1.944718     -3.756815
  C       2.756355     -3.049872     -3.051302
  H       2.464599     -1.815234      0.151411
  H       1.386868      0.055888     -3.631609
  H       3.240925     -3.843004     -1.082536
  H       2.175148     -1.978692     -4.854727
  H       3.092638     -3.946559     -3.589175
  C       1.866585      1.808573      0.849688
  C       1.780176      1.837837      2.274053
  C       2.405360      2.940959      0.160929
  C       2.231471      2.954817      2.972887
  C       2.829588      4.052073      0.888734
  C       2.754188      4.075501      2.294900
  H       1.366585      0.964344      2.796427
  H       2.460154      2.920687     -0.936480
  H       2.172013      2.960364      4.071338
  H       3.240042      4.917219      0.346451
  H       3.092990      4.957539      2.855184
24
Coordinates from ORCA-job input E 1716.009468279266
  N       1.427065      0.320066     -0.970730
  N       1.389969      0.710992      0.215428
  C       1.898527     -0.747876     -1.647115
  C       2.429925     -1.883154     -0.949562
  C       1.798045     -0.791594     -3.072572
  C       2.840311     -3.001413     -1.673297
  C       2.219440     -1.925524     -3.760696
  C       2.744040     -3.042447     -3.077500
  H       2.500160     -1.850217      0.146548
  H       1.389750      0.080418     -3.601057
  H       3.251920     -3.862789     -1.125457
  H       2.142761     -1.941993     -4.858076
  H       3.070259     -3.932719     -3.631923
  C       1.874831      1.792329      0.877247
  C       1.760327      1.856907      2.298227
  C       2.428375      2.905137      0.166902
  C       2.200100      2.992117      2.974585
  C       2.840036      4.033998      0.874327
  C       2.739249      4.093325      2.277727
  H       1.332271      0.999479      2.834545
  H       2.501971      2.853879     -0.928315
  H       2.116099      3.025128      4.071123
  H       3.262482      4.883659      0.316566
  H       3.071172      4.988099      2.821577
24
Coordinates from ORCA-job input E -572.019794422318
  N       1.382454      0.361601     -1.033449
  N       1.361440      0.748515      0.157802
  C       1.866940     -0.728117     -1.676753
  C       2.407426     -1.834428     -0.943283
  C       1.782181     -0.808784     -3.098578
  C       2.836601     -2.968485     -1.630506
  C       2.236722     -1.951365     -3.753268
  C       2.762744     -3.044117     -3.035019
  H       2.460171     -1.767918      0.152457
  H       1.368519      0.043141     -3.654986
  H       3.248328     -3.810631     -1.053616
  H       2.175585     -1.992298     -4.850920
  H       3.107431     -3.943657     -3.562848
  C       1.866747      1.799872      0.845530
  C       1.780622      1.823702      2.271311
  C       2.406880      2.937038      0.157122
  C       2.237217      2.938463      2.971003
  C       2.833591      4.042659      0.889292
  C       2.761514      4.060638      2.297017
  H       1.366510      0.950938      2.793520
  H       2.455773      2.916883     -0.940419
  H       2.176784      2.934652      4.069611
  H       3.243875      4.908205      0.346900
  H       3.103033      4.939304      2.860584
24
Coordinates from ORCA-job input E -572.020235481260
  N       1.369849      0.379746     -1.058868
  N       1.356921      0.760378      0.135446
  C       1.856599     -0.718556     -1.690138
  C       2.404443     -1.811225     -0.942005
  C       1.771221     -0.816355     -3.109644
  C       2.839979     -2.951406     -1.614851
  C       2.236416     -1.963425     -3.750126
  C       2.768461     -3.043656     -3.018551
  H       2.454438     -1.728200      0.152659
  H       1.351088      0.024995     -3.677114
  H       3.255181     -3.783811     -1.026372
  H       2.175323     -2.015399     -4.847314
  H       3.119616     -3.947009     -3.535545
  C       1.865136      1.800825      0.834534
  C       1.784462      1.811082      2.261438
  C       2.404983      2.945516      0.154748
  C       2.244704      2.919508      2.969302
  C       2.835497      4.042489      0.896514
  C       2.767711      4.047577      2.304960
  H       1.372696      0.934055      2.778231
  H       2.449755      2.933513     -0.942947
  H       2.187484      2.902679      4.068014
  H       3.245093      4.912195      0.360187
  H       3.112033      4.920292      2.875944
24
Coordinates from ORCA-job input E -572.021121580413
  N       1.323141      0.451992     -1.165461
  N       1.344369      0.810580      0.039313
  C       1.829412     -0.681048     -1.739013
  C       2.405775     -1.718438     -0.939877
  C       1.732521     -0.850524     -3.147657
  C       2.862096     -2.882643     -1.556053
  C       2.217932     -2.020106     -3.733742
  C       2.780310     -3.047068     -2.952313
  H       2.458197     -1.570185      0.147580
  H       1.287795     -0.049899     -3.753918
  H       3.298895     -3.674623     -0.928641
  H       2.146471     -2.125748     -4.826449
  H       3.147706     -3.967886     -3.425764
  C       1.861174      1.812665      0.782160
  C       1.794784      1.764372      2.210138
  C       2.402802      2.986506      0.148931
  C       2.266290      2.841312      2.959836
  C       2.845294      4.047079      0.934392
  C       2.789167      3.993444      2.341706
  H       1.384154      0.869712      2.696723
  H       2.436917      3.016494     -0.948523
  H       2.216131      2.773828      4.057090
  H       3.255138      4.936592      0.431617
  H       3.142615      4.839398      2.946427
24
Coordinates from ORCA-job input E -572.021959128203
  N       1.309513      0.421350     -1.123245
  N       1.321485      0.785943      0.080376
  C       1.830866     -0.690755     -1.715112
  C       2.434358     -1.733009     -0.942926
  C       1.713697     -0.844724     -3.126796
  C       2.898426     -2.880760     -1.583656
  C       2.198728     -1.999872     -3.737848
  C       2.791945     -3.028987     -2.980139
  H       2.504863     -1.605661      0.146313
  H       1.245526     -0.041120     -3.711313
  H       3.356919     -3.677226     -0.977785
  H       2.109664     -2.098792     -4.829889
  H       3.161876     -3.939248     -3.471592
  C       1.844064      1.805250      0.801846
  C       1.747019      1.795243      2.226743
  C       2.431339      2.942958      0.153915
  C       2.230761      2.876309      2.961998
  C       2.881182      4.016242      0.920496
  C       2.795073      3.998872      2.325777
  H       1.297561      0.924057      2.722138
  H       2.491001      2.948269     -0.943239
  H       2.155584      2.844826      4.059315
  H       3.321054      4.884888      0.406981
  H       3.156582      4.851754      2.916144
24
Coordinates from ORCA-job input E -572.023163280626
  N       1.242801      0.396845     -1.088337
  N       1.254401      0.756780      0.118106
  C       1.802162     -0.691482     -1.683685
  C       2.455721     -1.718177     -0.933488
  C       1.668957     -0.837770     -3.098767
  C       2.954265     -2.840165     -1.593894
  C       2.184430     -1.965172     -3.731014
  C       2.829847     -2.978238     -2.990034
  H       2.540052     -1.605729      0.156580
  H       1.161544     -0.043903     -3.663844
  H       3.453539     -3.627240     -1.008731
  H       2.085427     -2.064725     -4.822090
  H       3.226218     -3.869815     -3.495206
  C       1.806787      1.787742      0.811697
  C       1.679724      1.820298      2.230869
  C       2.456517      2.873565      0.149197
  C       2.195485      2.895872      2.951179
  C       2.941770      3.949107      0.895636
  C       2.824810      3.972733      2.295885
  H       1.178239      0.982326      2.734479
  H       2.541315      2.849655     -0.946491
  H       2.099316      2.904353      4.047040
  H       3.431609      4.784609      0.372824
  H       3.214151      4.824338      2.870591
24
Coordinates from ORCA-job input E -572.024316716887
  N       1.153362      0.385570     -1.062109
  N       1.166171      0.727617      0.152670
  C       1.762590     -0.681363     -1.654978
  C       2.459722     -1.685133     -0.915755
  C       1.630096     -0.822782     -3.072352
  C       3.002135     -2.781051     -1.586730
  C       2.188688     -1.921010     -3.717362
  C       2.878061     -2.911765     -2.983326
  H       2.543537     -1.581387      0.175266
  H       1.087837     -0.044251     -3.626743
  H       3.536078     -3.553653     -1.013439
  H       2.092794     -2.021189     -4.808513
  H       3.309021     -3.783035     -3.495979
  C       1.760625      1.761230      0.817126
  C       1.621726      1.832170      2.232334
  C       2.463735      2.794647      0.134476
  C       2.179547      2.898514      2.933666
  C       2.995574      3.865338      0.859241
  C       2.865991      3.927339      2.256240
  H       1.076469      1.029742      2.748725
  H       2.558117      2.740770     -0.959465
  H       2.076391      2.941657      4.027882
  H       3.529649      4.664547      0.323615
  H       3.291173      4.773284      2.814011
24
Coordinates from ORCA-job input E -572.025138671890
  N       1.051983      0.384707     -1.045030
  N       1.069213      0.699701      0.182714
  C       1.715280     -0.662937     -1.632641
  C       2.450653     -1.637255     -0.894845
  C       1.596113     -0.803903     -3.049719
  C       3.043041     -2.707759     -1.566321
  C       2.206347     -1.873104     -3.698920
  C       2.932264     -2.835829     -2.963952
  H       2.523683     -1.535322      0.197057
  H       1.023077     -0.045715     -3.601799
  H       3.606507     -3.460610     -0.995245
  H       2.122109     -1.974274     -4.790819
  H       3.402503     -3.685929     -3.478023
  C       1.708103      1.727755      0.819787
  C       1.572378      1.834628      2.233823
  C       2.457149      2.711520      0.113400
  C       2.178958      2.888440      2.912743
  C       3.041898      3.769813      0.815373
  C       2.914438      3.867660      2.211628
  H       0.990748      1.069491      2.766945
  H       2.548796      2.629250     -0.978756
  H       2.079409      2.961193      4.005640
  H       3.614024      4.530609      0.263703
  H       3.380415      4.703675      2.751758
24
Coordinates from ORCA-job input E -572.025596419902
  N       0.992492      0.390281     -1.044066
  N       1.018431      0.686747      0.193575
  C       1.681513     -0.653016     -1.626148
  C       2.432266     -1.608660     -0.881881
  C       1.580874     -0.794344     -3.041514
  C       3.055514     -2.666452     -1.546374
  C       2.228702     -1.845891     -3.686967
  C       2.965560     -2.792848     -2.945583
  H       2.489661     -1.504518      0.210577
  H       0.996540     -0.048634     -3.598921
  H       3.628969     -3.406944     -0.969194
  H       2.159922     -1.944752     -4.780125
  H       3.461076     -3.630617     -3.456319
  C       1.676820      1.708759      0.818693
  C       1.555646      1.829362      2.235154
  C       2.440728      2.674727      0.097581
  C       2.191725      2.874363      2.900670
  C       3.058087      3.719943      0.788424
  C       2.944674      3.830756      2.186574
  H       0.964253      1.080412      2.780260
  H       2.520725      2.582405     -0.994241
  H       2.103878      2.955132      3.994053
  H       3.644987      4.461709      0.226479
  H       3.436044      4.657887      2.717794
24
Coordinates from ORCA-job input E -572.025876885516
  N       0.949745      0.396311     -1.050750
  N       0.989537      0.678413      0.193895
  C       1.654582     -0.641206     -1.631154
  C       2.434086     -1.568501     -0.881325
  C       1.548926     -0.801344     -3.040800
  C       3.083396     -2.616259     -1.535920
  C       2.225099     -1.841201     -3.679221
  C       2.991645     -2.758516     -2.934003
  H       2.490998     -1.449927      0.209934
  H       0.938113     -0.079857     -3.601864
  H       3.676693     -3.335508     -0.951634
  H       2.151316     -1.951295     -4.771005
  H       3.506720     -3.587457     -3.439764
  C       1.656236      1.692562      0.818193
  C       1.529593      1.831969      2.233486
  C       2.449439      2.637952      0.095103
  C       2.187708      2.867454      2.893787
  C       3.087177      3.671953      0.780679
  C       2.969414      3.797989      2.178571
  H       0.914632      1.103977      2.780804
  H       2.531872      2.535341     -0.995682
  H       2.091314      2.960512      3.985649
  H       3.693609      4.395322      0.214941
  H       3.477236      4.617124      2.706582
24
Coordinates from ORCA-job input E -572.026001241366
  N       0.925057      0.395612     -1.053043
  N       0.974241      0.674476      0.192686
  C       1.636520     -0.636676     -1.633672
  C       2.447946     -1.537395     -0.884265
  C       1.513926     -0.815138     -3.038913
  C       3.115677     -2.574459     -1.536455
  C       2.206538     -1.845751     -3.675145
  C       3.007516     -2.734159     -2.931848
  H       2.515161     -1.405336      0.204882
  H       0.876561     -0.115512     -3.598102
  H       3.733989     -3.272260     -0.951953
  H       2.118621     -1.968895     -4.764542
  H       3.536896     -3.554616     -3.436677
  C       1.644163      1.684977      0.817676
  C       1.499322      1.843032      2.228921
  C       2.469513      2.607405      0.098906
  C       2.169866      2.871058      2.889276
  C       3.120656      3.632424      0.784073
  C       2.984687      3.775346      2.178822
  H       0.858529      1.134485      2.772202
  H       2.563875      2.493882     -0.989992
  H       2.056727      2.977791      3.978361
  H       3.749932      4.337882      0.220342
  H       3.503167      4.587633      2.706960
24
Coordinates from ORCA-job input E -572.026086858328
  N       0.916197      0.392078     -1.052419
  N       0.970340      0.673968      0.191249
  C       1.628377     -0.637788     -1.633934
  C       2.469883     -1.516192     -0.889725
  C       1.480880     -0.832350     -3.035263
  C       3.147365     -2.544216     -1.545831
  C       2.180145     -1.856617     -3.673821
  C       3.014624     -2.719896     -2.937226
  H       2.553517     -1.372551      0.196682
  H       0.819752     -0.150433     -3.588482
  H       3.791191     -3.223203     -0.966750
  H       2.072080     -1.992589     -4.759907
  H       3.552120     -3.533566     -3.444545
  C       1.639185      1.684944      0.817247
  C       1.468661      1.859385      2.223039
  C       2.494929      2.585127      0.106289
  C       2.144330      2.881885      2.887056
  C       3.152619      3.603741      0.795128
  C       2.991312      3.762582      2.185021
  H       0.803448      1.167524      2.758460
  H       2.607071      2.460218     -0.979743
  H       2.010106      3.001572      3.972401
  H       3.805331      4.292823      0.237754
  H       3.515625      4.569362      2.715820
24
Coordinates from ORCA-job input E -572.026118558233
  N       0.915564      0.388415     -1.048330
  N       0.968735      0.672793      0.193516
  C       1.628529     -0.638970     -1.631049
  C       2.486224     -1.507374     -0.893154
  C       1.464804     -0.840251     -3.030602
  C       3.165370     -2.530841     -1.554648
  C       2.163562     -1.861644     -3.673575
  C       3.015871     -2.713590     -2.943447
  H       2.581761     -1.359126      0.191651
  H       0.791100     -0.166036     -3.577935
  H       3.823262     -3.201511     -0.981758
  H       2.041948     -2.004191     -4.757363
  H       3.554792     -3.524332     -3.454024
  C       1.637895      1.685845      0.817933
  C       1.449990      1.870815      2.219715
  C       2.511214      2.570963      0.111379
  C       2.127101      2.890969      2.885813
  C       3.169989      3.588514      0.801695
  C       2.991864      3.758003      2.188084
  H       0.770165      1.189430      2.750107
  H       2.636154      2.436909     -0.972203
  H       1.979237      3.020015      3.968264
  H       3.836319      4.267789      0.248508
  H       3.517638      4.563212      2.719927
24
Coordinates from ORCA-job input E -572.026135346041
  N       0.922802      0.386460     -1.044626
  N       0.971627      0.672747      0.195867
  C       1.633142     -0.641406     -1.628274
  C       2.492027     -1.511602     -0.893920
  C       1.464801     -0.840537     -3.028388
  C       3.167257     -2.535206     -1.559391
  C       2.159071     -1.862508     -3.674810
  C       3.012377     -2.716586     -2.947713
  H       2.591917     -1.364356      0.190604
  H       0.791144     -0.164265     -3.573170
  H       3.826936     -3.207131     -0.990127
  H       2.033430     -2.004174     -4.758228
  H       3.548581     -3.527739     -3.460544
  C       1.639956      1.688613      0.818778
  C       1.446799      1.874359      2.219635
  C       2.514764      2.571356      0.112741
  C       2.121407      2.895607      2.886427
  C       3.171429      3.590344      0.803803
  C       2.988036      3.761607      2.189173
  H       0.765405      1.193755      2.748928
  H       2.643909      2.434285     -0.969911
  H       1.970122      3.025909      3.968192
  H       3.839981      4.268519      0.252138
  H       3.512167      4.567755      2.721318
24
Coordinates from ORCA-job input E -572.026156054633
  N       0.927398      0.384300     -1.038701
  N       0.969085      0.670177      0.201529
  C       1.637096     -0.641681     -1.624307
  C       2.496263     -1.514613     -0.893715
  C       1.466937     -0.837653     -3.025270
  C       3.168642     -2.537802     -1.562714
  C       2.157860     -1.859370     -3.675332
  C       3.010988     -2.716426     -2.951126
  H       2.598996     -1.369449      0.190896
  H       0.793578     -0.159211     -3.567750
  H       3.828767     -3.211944     -0.996606
  H       2.030105     -1.999069     -4.758729
  H       3.544930     -3.527736     -3.466078
  C       1.639313      1.688805      0.820708
  C       1.443230      1.877423      2.220595
  C       2.515783      2.567264      0.113118
  C       2.117800      2.899639      2.886035
  C       3.172220      3.588121      0.802241
  C       2.985971      3.762802      2.186893
  H       0.759841      1.199467      2.750606
  H       2.647352      2.425534     -0.968637
  H       1.964730      3.032885      3.967137
  H       3.842559      4.264039      0.250128
  H       3.509646      4.570304      2.717580
24
Coordinates from ORCA-job input E -572.026194236923
  N       0.936815      0.381235     -1.027926
  N       0.962813      0.664962      0.212862
  C       1.643043     -0.642159     -1.618000
  C       2.496282     -1.524460     -0.891569
  C       1.477341     -0.828750     -3.021513
  C       3.164099     -2.547569     -1.565165
  C       2.163402     -1.850488     -3.676316
  C       3.009200     -2.717549     -2.955011
  H       2.598422     -1.385649      0.193996
  H       0.809949     -0.143238     -3.562581
  H       3.819356     -3.228937     -1.002078
  H       2.038008     -1.982797     -4.760890
  H       3.539613     -3.529330     -3.472817
  C       1.637265      1.688350      0.824765
  C       1.443492      1.879217      2.224304
  C       2.509811      2.564478      0.111601
  C       2.118491      2.904186      2.885517
  C       3.167064      3.588542      0.795702
  C       2.983101      3.766146      2.180467
  H       0.762327      1.202381      2.758481
  H       2.639031      2.417740     -0.969741
  H       1.968173      3.039581      3.966670
  H       3.835512      4.263485      0.240333
  H       3.506479      4.576432      2.707411
24
Coordinates from ORCA-job input E -572.026236889345
  N       0.942636      0.378645     -1.016480
  N       0.949307      0.657964      0.226373
  C       1.645532     -0.640285     -1.612742
  C       2.493316     -1.530733     -0.888890
  C       1.487394     -0.818623     -3.018457
  C       3.160038     -2.552574     -1.565208
  C       2.172334     -1.839286     -3.676018
  C       3.011427     -2.714489     -2.956774
  H       2.592017     -1.398262      0.197847
  H       0.825122     -0.128100     -3.559573
  H       3.809778     -3.240005     -1.002998
  H       2.051519     -1.964330     -4.761988
  H       3.540976     -3.525482     -3.476579
  C       1.631331      1.685004      0.829510
  C       1.443117      1.880647      2.228499
  C       2.500893      2.557486      0.109482
  C       2.122375      2.907103      2.883914
  C       3.162401      3.583456      0.786304
  C       2.984288      3.765261      2.171627
  H       0.763477      1.206533      2.768038
  H       2.623977      2.406259     -0.972015
  H       1.976912      3.046083      3.965246
  H       3.828881      4.256115      0.225905
  H       3.510042      4.577422      2.693476
24
Coordinates from ORCA-job input E -572.026266284797
  N       0.943437      0.378559     -1.012279
  N       0.937613      0.654848      0.232714
  C       1.643052     -0.637951     -1.612863
  C       2.490031     -1.529694     -0.888085
  C       1.489712     -0.815098     -3.018893
  C       3.159457     -2.550173     -1.563490
  C       2.177639     -1.834888     -3.674932
  C       3.015613     -2.710678     -2.955679
  H       2.585506     -1.398828      0.199120
  H       0.828247     -0.125130     -3.561692
  H       3.807158     -3.237986     -0.999223
  H       2.059782     -1.958037     -4.761518
  H       3.547508     -3.520105     -3.475350
  C       1.625879      1.681946      0.831708
  C       1.442257      1.881332      2.230247
  C       2.495396      2.552489      0.108745
  C       2.126255      2.906845      2.882844
  C       3.161584      3.577365      0.781610
  C       2.988414      3.761412      2.167495
  H       0.762450      1.208969      2.771946
  H       2.612737      2.401160     -0.973453
  H       1.984343      3.048062      3.964380
  H       3.827522      4.248311      0.218413
  H       3.517497      4.573077      2.686739
24
Coordinates from ORCA-job input E -572.026278846119
  N       0.941282      0.381270     -1.016297
  N       0.933160      0.656827      0.229838
  C       1.639140     -0.636074     -1.617011
  C       2.489026     -1.523225     -0.888967
  C       1.485194     -0.818333     -3.021797
  C       3.161905     -2.543513     -1.561215
  C       2.176793     -1.838470     -3.673766
  C       3.018393     -2.708872     -2.952751
  H       2.583596     -1.389129      0.197841
  H       0.821072     -0.132734     -3.566738
  H       3.811304     -3.227166     -0.993752
  H       2.058462     -1.965211     -4.759964
  H       3.553267     -3.517409     -3.470678
  C       1.623844      1.681155      0.830416
  C       1.441547      1.880672      2.229014
  C       2.495276      2.552203      0.109110
  C       2.127882      2.903734      2.882947
  C       3.163802      3.574276      0.783093
  C       2.992128      3.757283      2.169296
  H       0.760560      1.207922      2.768938
  H       2.610574      2.404186     -0.973826
  H       1.986774      3.044519      3.964686
  H       3.830719      4.245018      0.220659
  H       3.523389      4.566878      2.689427
24
Coordinates from ORCA-job input E -572.026282100850
  N       0.941060      0.383915     -1.020366
  N       0.932906      0.659651      0.225782
  C       1.638056     -0.635308     -1.619533
  C       2.488811     -1.519917     -0.889233
  C       1.483018     -0.820713     -3.023676
  C       3.162668     -2.540973     -1.559648
  C       2.175393     -1.841982     -3.673145
  C       3.018450     -2.709603     -2.950596
  H       2.583357     -1.383371      0.197214
  H       0.818091     -0.137063     -3.569977
  H       3.812994     -3.222287     -0.990433
  H       2.056262     -1.971305     -4.758957
  H       3.554135     -3.518375     -3.467313
  C       1.624011      1.682057      0.828493
  C       1.442396      1.879155      2.227662
  C       2.495336      2.554885      0.108810
  C       2.128827      2.900698      2.883468
  C       3.164095      3.575379      0.784923
  C       2.993082      3.755781      2.171443
  H       0.761711      1.204633      2.765785
  H       2.610174      2.409703     -0.974557
  H       1.988332      3.039530      3.965537
  H       3.831101      4.247205      0.223828
  H       3.524824      4.564113      2.692990
24
Coordinates from ORCA-job input E -572.026283831174
  N       0.940761      0.386361     -1.023329
  N       0.931356      0.662146      0.222744
  C       1.637374     -0.634482     -1.620865
  C       2.489930     -1.516331     -0.889476
  C       1.480662     -0.822653     -3.024429
  C       3.164465     -2.537797     -1.558708
  C       2.173438     -1.844661     -3.672417
  C       3.018584     -2.709485     -2.949018
  H       2.585533     -1.377391      0.196541
  H       0.814378     -0.140953     -3.571404
  H       3.816446     -3.216742     -0.988581
  H       2.052811     -1.976489     -4.757791
  H       3.554801     -3.518413     -3.465005
  C       1.623619      1.682768      0.826891
  C       1.441736      1.878459      2.226332
  C       2.495973      2.555579      0.108576
  C       2.128687      2.898423      2.883663
  C       3.165323      3.574693      0.786316
  C       2.993992      3.753699      2.172880
  H       0.760182      1.203431      2.762758
  H       2.611325      2.411723     -0.974929
  H       1.988131      3.036364      3.965847
  H       3.833293      4.246586      0.226446
  H       3.526288      4.560972      2.695461
24
Coordinates from ORCA-job input E -572.026283897656
  N       0.942126      0.388062     -1.025028
  N       0.930991      0.664043      0.220789
  C       1.638132     -0.634020     -1.621419
  C       2.491348     -1.514973     -0.889970
  C       1.480062     -0.823748     -3.024717
  C       3.165230     -2.537222     -1.558729
  C       2.171955     -1.846685     -3.672270
  C       3.017787     -2.710613     -2.948611
  H       2.588241     -1.374660      0.195758
  H       0.813294     -0.142629     -3.571870
  H       3.817856     -3.215357     -0.988411
  H       2.050056     -1.979884     -4.757331
  H       3.553352     -3.520158     -3.464272
  C       1.623840      1.683707      0.826023
  C       1.441491      1.878117      2.225682
  C       2.496447      2.556843      0.108658
  C       2.128327      2.897337      2.884150
  C       3.165576      3.575508      0.787471
  C       2.993786      3.753286      2.174131
  H       0.759578      1.202585      2.761015
  H       2.612373      2.413741     -0.974877
  H       1.987649      3.034428      3.966408
  H       3.833756      4.247853      0.228433
  H       3.525838      4.560243      2.697487
